
Gurobi 5.6.3 (linux64) logging started Thu Dec 18 20:09:45 2014


ERROR 10009: No Gurobi license found (user piotrek, host piotrek-desktop, hostid 5d2d7267)


Gurobi 5.6.3 (linux64) logging started Thu Dec 18 20:09:45 2014


ERROR 10009: No Gurobi license found (user piotrek, host piotrek-desktop, hostid 5d2d7267)


Gurobi 5.6.3 (linux64) logging started Thu Dec 18 20:09:45 2014


ERROR 10009: No Gurobi license found (user piotrek, host piotrek-desktop, hostid 5d2d7267)


Gurobi 5.6.3 (linux64) logging started Thu Dec 18 20:09:45 2014


ERROR 10009: No Gurobi license found (user piotrek, host piotrek-desktop, hostid 5d2d7267)


Gurobi 5.6.3 (linux64) logging started Thu Dec 18 20:09:45 2014


ERROR 10009: No Gurobi license found (user piotrek, host piotrek-desktop, hostid 5d2d7267)


Gurobi 5.6.3 (linux64) logging started Thu Dec 18 20:09:45 2014


ERROR 10009: No Gurobi license found (user piotrek, host piotrek-desktop, hostid 5d2d7267)


Gurobi 5.6.3 (linux64) logging started Thu Dec 18 20:09:45 2014


ERROR 10009: No Gurobi license found (user piotrek, host piotrek-desktop, hostid 5d2d7267)


Gurobi 5.6.3 (linux64) logging started Thu Dec 18 20:09:45 2014


ERROR 10009: No Gurobi license found (user piotrek, host piotrek-desktop, hostid 5d2d7267)


Gurobi 5.6.3 (linux64) logging started Thu Dec 18 20:11:48 2014


Gurobi Optimizer version 5.6.3 build v5.6.3rc2 (linux64)
Copyright (c) 2013, Gurobi Optimization, Inc.

Read LP format model from file /home/piotrek/Kodzenie/SolversComparision/problems/grow15cplex.lp
Reading time = 0.02 seconds
(null): 900 rows, 645 columns, 6220 nonzeros
Optimize a model with 900 rows, 645 columns and 6220 nonzeros
Presolve removed 600 rows and 0 columns
Presolve time: 0.00s
Presolved: 300 rows, 645 columns, 5620 nonzeros

Iteration    Objective       Primal Inf.    Dual Inf.      Time
       0   -1.2975000e+08   6.500000e+07   0.000000e+00      0s
    1261   -1.0687094e+08   0.000000e+00   0.000000e+00      0s

Solved in 1261 iterations and 0.09 seconds
Optimal objective -1.068709413e+08

Wrote result file '/home/piotrek/Kodzenie/SolversComparision/outputs/grow15gurobi.sol'


Gurobi 5.6.3 (linux64) logging started Thu Dec 18 20:11:48 2014


Gurobi Optimizer version 5.6.3 build v5.6.3rc2 (linux64)
Copyright (c) 2013, Gurobi Optimization, Inc.

Read LP format model from file /home/piotrek/Kodzenie/SolversComparision/problems/afirocplex.lp
Reading time = 0.00 seconds
(null): 27 rows, 32 columns, 83 nonzeros
Optimize a model with 27 rows, 32 columns and 83 nonzeros
Presolve removed 21 rows and 23 columns
Presolve time: 0.00s
Presolved: 6 rows, 9 columns, 26 nonzeros

Iteration    Objective       Primal Inf.    Dual Inf.      Time
       0   -5.2220564e+02   4.210907e+02   0.000000e+00      0s
       3   -4.6475314e+02   0.000000e+00   0.000000e+00      0s

Solved in 3 iterations and 0.00 seconds
Optimal objective -4.647531429e+02

Wrote result file '/home/piotrek/Kodzenie/SolversComparision/outputs/afirogurobi.sol'


Gurobi 5.6.3 (linux64) logging started Thu Dec 18 20:11:48 2014


Gurobi Optimizer version 5.6.3 build v5.6.3rc2 (linux64)
Copyright (c) 2013, Gurobi Optimization, Inc.

Read LP format model from file /home/piotrek/Kodzenie/SolversComparision/problems/gangescplex.lp
Reading time = 0.02 seconds
(null): 1713 rows, 1681 columns, 7316 nonzeros
Optimize a model with 1713 rows, 1681 columns and 7316 nonzeros
Presolve removed 1346 rows and 1079 columns
Presolve time: 0.01s
Presolved: 367 rows, 602 columns, 2639 nonzeros

Iteration    Objective       Primal Inf.    Dual Inf.      Time
       0   -2.4838630e+05   3.804770e+05   0.000000e+00      0s
     365   -1.0958574e+05   0.000000e+00   0.000000e+00      0s

Solved in 365 iterations and 0.01 seconds
Optimal objective -1.095857435e+05

Wrote result file '/home/piotrek/Kodzenie/SolversComparision/outputs/gangesgurobi.sol'


Gurobi 5.6.3 (linux64) logging started Thu Dec 18 20:11:48 2014


Gurobi Optimizer version 5.6.3 build v5.6.3rc2 (linux64)
Copyright (c) 2013, Gurobi Optimization, Inc.

Read LP format model from file /home/piotrek/Kodzenie/SolversComparision/problems/agg2cplex.lp
Reading time = 0.02 seconds
(null): 516 rows, 302 columns, 4284 nonzeros
Optimize a model with 516 rows, 302 columns and 4284 nonzeros
Presolve removed 239 rows and 55 columns
Presolve time: 0.00s
Presolved: 277 rows, 247 columns, 2253 nonzeros

Iteration    Objective       Primal Inf.    Dual Inf.      Time
       0   -1.1437020e+08   3.741269e+07   0.000000e+00      0s
     156   -2.0239263e+07   0.000000e+00   0.000000e+00      0s

Solved in 156 iterations and 0.00 seconds
Optimal objective -2.023926325e+07

Wrote result file '/home/piotrek/Kodzenie/SolversComparision/outputs/agg2gurobi.sol'


Gurobi 5.6.3 (linux64) logging started Thu Dec 18 20:11:48 2014


Gurobi Optimizer version 5.6.3 build v5.6.3rc2 (linux64)
Copyright (c) 2013, Gurobi Optimization, Inc.

Read LP format model from file /home/piotrek/Kodzenie/SolversComparision/problems/israelcplex.lp
Reading time = 0.01 seconds
(null): 174 rows, 142 columns, 2269 nonzeros
Optimize a model with 174 rows, 142 columns and 2269 nonzeros
Presolve removed 11 rows and 1 columns
Presolve time: 0.00s
Presolved: 163 rows, 141 columns, 2256 nonzeros

Iteration    Objective       Primal Inf.    Dual Inf.      Time
       0   -4.5133741e+06   1.493211e+05   0.000000e+00      0s
     123   -8.9664482e+05   0.000000e+00   0.000000e+00      0s

Solved in 123 iterations and 0.01 seconds
Optimal objective -8.966448219e+05

Wrote result file '/home/piotrek/Kodzenie/SolversComparision/outputs/israelgurobi.sol'


Gurobi 5.6.3 (linux64) logging started Thu Dec 18 20:11:48 2014


Gurobi Optimizer version 5.6.3 build v5.6.3rc2 (linux64)
Copyright (c) 2013, Gurobi Optimization, Inc.

Read LP format model from file /home/piotrek/Kodzenie/SolversComparision/problems/agg3cplex.lp
Reading time = 0.01 seconds
(null): 516 rows, 302 columns, 4300 nonzeros
Optimize a model with 516 rows, 302 columns and 4300 nonzeros
Presolve removed 239 rows and 58 columns
Presolve time: 0.00s
Presolved: 277 rows, 244 columns, 2274 nonzeros

Iteration    Objective       Primal Inf.    Dual Inf.      Time
       0   -9.4033282e+07   3.907610e+07   0.000000e+00      0s
     153    1.0312059e+07   0.000000e+00   0.000000e+00      0s

Solved in 153 iterations and 0.00 seconds
Optimal objective  1.031205859e+07

Wrote result file '/home/piotrek/Kodzenie/SolversComparision/outputs/agg3gurobi.sol'


Gurobi 5.6.3 (linux64) logging started Thu Dec 18 20:11:48 2014


Gurobi Optimizer version 5.6.3 build v5.6.3rc2 (linux64)
Copyright (c) 2013, Gurobi Optimization, Inc.

Read LP format model from file /home/piotrek/Kodzenie/SolversComparision/problems/grow7cplex.lp
Reading time = 0.00 seconds
(null): 420 rows, 301 columns, 2892 nonzeros
Optimize a model with 420 rows, 301 columns and 2892 nonzeros
Presolve removed 280 rows and 0 columns
Presolve time: 0.00s
Presolved: 140 rows, 301 columns, 2612 nonzeros

Iteration    Objective       Primal Inf.    Dual Inf.      Time
       0   -5.7750000e+07   2.500000e+07   0.000000e+00      0s
     396   -4.7787812e+07   0.000000e+00   0.000000e+00      0s

Solved in 396 iterations and 0.02 seconds
Optimal objective -4.778781181e+07

Wrote result file '/home/piotrek/Kodzenie/SolversComparision/outputs/grow7gurobi.sol'


Gurobi 5.6.3 (linux64) logging started Thu Dec 18 20:11:48 2014


Gurobi Optimizer version 5.6.3 build v5.6.3rc2 (linux64)
Copyright (c) 2013, Gurobi Optimization, Inc.

Read LP format model from file /home/piotrek/Kodzenie/SolversComparision/problems/aggcplex.lp
Reading time = 0.00 seconds
(null): 488 rows, 163 columns, 2410 nonzeros
Optimize a model with 488 rows, 163 columns and 2410 nonzeros
Presolve removed 341 rows and 57 columns
Presolve time: 0.00s
Presolved: 147 rows, 122 columns, 810 nonzeros

Iteration    Objective       Primal Inf.    Dual Inf.      Time
       0   -1.4343157e+08   2.710298e+07   0.000000e+00      0s
      88   -3.5991697e+07   0.000000e+00   0.000000e+00      0s

Solved in 88 iterations and 0.00 seconds
Optimal objective -3.599169694e+07

Wrote result file '/home/piotrek/Kodzenie/SolversComparision/outputs/agggurobi.sol'


Gurobi 5.6.3 (linux64) logging started Thu Dec 18 20:15:04 2014


Gurobi Optimizer version 5.6.3 build v5.6.3rc2 (linux64)
Copyright (c) 2013, Gurobi Optimization, Inc.

Read LP format model from file /home/piotrek/Kodzenie/SolversComparision/problems/grow15cplex.lp
Reading time = 0.01 seconds
(null): 900 rows, 645 columns, 6220 nonzeros
Optimize a model with 900 rows, 645 columns and 6220 nonzeros
Presolve removed 600 rows and 0 columns
Presolve time: 0.00s
Presolved: 300 rows, 645 columns, 5620 nonzeros

Iteration    Objective       Primal Inf.    Dual Inf.      Time
       0   -1.2975000e+08   6.500000e+07   0.000000e+00      0s
    1261   -1.0687094e+08   0.000000e+00   0.000000e+00      0s

Solved in 1261 iterations and 0.09 seconds
Optimal objective -1.068709413e+08

Wrote result file '/home/piotrek/Kodzenie/SolversComparision/outputs/grow15gurobi.sol'


Gurobi 5.6.3 (linux64) logging started Thu Dec 18 20:15:04 2014


Gurobi Optimizer version 5.6.3 build v5.6.3rc2 (linux64)
Copyright (c) 2013, Gurobi Optimization, Inc.

Read LP format model from file /home/piotrek/Kodzenie/SolversComparision/problems/afirocplex.lp
Reading time = 0.00 seconds
(null): 27 rows, 32 columns, 83 nonzeros
Optimize a model with 27 rows, 32 columns and 83 nonzeros
Presolve removed 21 rows and 23 columns
Presolve time: 0.00s
Presolved: 6 rows, 9 columns, 26 nonzeros

Iteration    Objective       Primal Inf.    Dual Inf.      Time
       0   -5.2220564e+02   4.210907e+02   0.000000e+00      0s
       3   -4.6475314e+02   0.000000e+00   0.000000e+00      0s

Solved in 3 iterations and 0.00 seconds
Optimal objective -4.647531429e+02

Wrote result file '/home/piotrek/Kodzenie/SolversComparision/outputs/afirogurobi.sol'


Gurobi 5.6.3 (linux64) logging started Thu Dec 18 20:15:04 2014


Gurobi Optimizer version 5.6.3 build v5.6.3rc2 (linux64)
Copyright (c) 2013, Gurobi Optimization, Inc.

Read LP format model from file /home/piotrek/Kodzenie/SolversComparision/problems/gangescplex.lp
Reading time = 0.02 seconds
(null): 1713 rows, 1681 columns, 7316 nonzeros
Optimize a model with 1713 rows, 1681 columns and 7316 nonzeros
Presolve removed 1346 rows and 1079 columns
Presolve time: 0.01s
Presolved: 367 rows, 602 columns, 2639 nonzeros

Iteration    Objective       Primal Inf.    Dual Inf.      Time
       0   -2.4838630e+05   3.804770e+05   0.000000e+00      0s
     365   -1.0958574e+05   0.000000e+00   0.000000e+00      0s

Solved in 365 iterations and 0.01 seconds
Optimal objective -1.095857435e+05

Wrote result file '/home/piotrek/Kodzenie/SolversComparision/outputs/gangesgurobi.sol'


Gurobi 5.6.3 (linux64) logging started Thu Dec 18 20:15:05 2014


Gurobi Optimizer version 5.6.3 build v5.6.3rc2 (linux64)
Copyright (c) 2013, Gurobi Optimization, Inc.

Read LP format model from file /home/piotrek/Kodzenie/SolversComparision/problems/agg2cplex.lp
Reading time = 0.01 seconds
(null): 516 rows, 302 columns, 4284 nonzeros
Optimize a model with 516 rows, 302 columns and 4284 nonzeros
Presolve removed 239 rows and 55 columns
Presolve time: 0.00s
Presolved: 277 rows, 247 columns, 2253 nonzeros

Iteration    Objective       Primal Inf.    Dual Inf.      Time
       0   -1.1437020e+08   3.741269e+07   0.000000e+00      0s
     156   -2.0239263e+07   0.000000e+00   0.000000e+00      0s

Solved in 156 iterations and 0.00 seconds
Optimal objective -2.023926325e+07

Wrote result file '/home/piotrek/Kodzenie/SolversComparision/outputs/agg2gurobi.sol'


Gurobi 5.6.3 (linux64) logging started Thu Dec 18 20:15:05 2014


Gurobi Optimizer version 5.6.3 build v5.6.3rc2 (linux64)
Copyright (c) 2013, Gurobi Optimization, Inc.

Read LP format model from file /home/piotrek/Kodzenie/SolversComparision/problems/israelcplex.lp
Reading time = 0.00 seconds
(null): 174 rows, 142 columns, 2269 nonzeros
Optimize a model with 174 rows, 142 columns and 2269 nonzeros
Presolve removed 11 rows and 1 columns
Presolve time: 0.00s
Presolved: 163 rows, 141 columns, 2256 nonzeros

Iteration    Objective       Primal Inf.    Dual Inf.      Time
       0   -4.5133741e+06   1.493211e+05   0.000000e+00      0s
     123   -8.9664482e+05   0.000000e+00   0.000000e+00      0s

Solved in 123 iterations and 0.00 seconds
Optimal objective -8.966448219e+05

Wrote result file '/home/piotrek/Kodzenie/SolversComparision/outputs/israelgurobi.sol'


Gurobi 5.6.3 (linux64) logging started Thu Dec 18 20:15:05 2014


Gurobi Optimizer version 5.6.3 build v5.6.3rc2 (linux64)
Copyright (c) 2013, Gurobi Optimization, Inc.

Read LP format model from file /home/piotrek/Kodzenie/SolversComparision/problems/agg3cplex.lp
Reading time = 0.01 seconds
(null): 516 rows, 302 columns, 4300 nonzeros
Optimize a model with 516 rows, 302 columns and 4300 nonzeros
Presolve removed 239 rows and 58 columns
Presolve time: 0.00s
Presolved: 277 rows, 244 columns, 2274 nonzeros

Iteration    Objective       Primal Inf.    Dual Inf.      Time
       0   -9.4033282e+07   3.907610e+07   0.000000e+00      0s
     153    1.0312059e+07   0.000000e+00   0.000000e+00      0s

Solved in 153 iterations and 0.00 seconds
Optimal objective  1.031205859e+07

Wrote result file '/home/piotrek/Kodzenie/SolversComparision/outputs/agg3gurobi.sol'


Gurobi 5.6.3 (linux64) logging started Thu Dec 18 20:15:05 2014


Gurobi Optimizer version 5.6.3 build v5.6.3rc2 (linux64)
Copyright (c) 2013, Gurobi Optimization, Inc.

Read LP format model from file /home/piotrek/Kodzenie/SolversComparision/problems/grow7cplex.lp
Reading time = 0.01 seconds
(null): 420 rows, 301 columns, 2892 nonzeros
Optimize a model with 420 rows, 301 columns and 2892 nonzeros
Presolve removed 280 rows and 0 columns
Presolve time: 0.00s
Presolved: 140 rows, 301 columns, 2612 nonzeros

Iteration    Objective       Primal Inf.    Dual Inf.      Time
       0   -5.7750000e+07   2.500000e+07   0.000000e+00      0s
     396   -4.7787812e+07   0.000000e+00   0.000000e+00      0s

Solved in 396 iterations and 0.02 seconds
Optimal objective -4.778781181e+07

Wrote result file '/home/piotrek/Kodzenie/SolversComparision/outputs/grow7gurobi.sol'


Gurobi 5.6.3 (linux64) logging started Thu Dec 18 20:15:05 2014


Gurobi Optimizer version 5.6.3 build v5.6.3rc2 (linux64)
Copyright (c) 2013, Gurobi Optimization, Inc.

Read LP format model from file /home/piotrek/Kodzenie/SolversComparision/problems/aggcplex.lp
Reading time = 0.00 seconds
(null): 488 rows, 163 columns, 2410 nonzeros
Optimize a model with 488 rows, 163 columns and 2410 nonzeros
Presolve removed 341 rows and 57 columns
Presolve time: 0.00s
Presolved: 147 rows, 122 columns, 810 nonzeros

Iteration    Objective       Primal Inf.    Dual Inf.      Time
       0   -1.4343157e+08   2.710298e+07   0.000000e+00      0s
      88   -3.5991697e+07   0.000000e+00   0.000000e+00      0s

Solved in 88 iterations and 0.00 seconds
Optimal objective -3.599169694e+07

Wrote result file '/home/piotrek/Kodzenie/SolversComparision/outputs/agggurobi.sol'


Gurobi 5.6.3 (linux64) logging started Thu Dec 18 20:15:45 2014


Gurobi Optimizer version 5.6.3 build v5.6.3rc2 (linux64)
Copyright (c) 2013, Gurobi Optimization, Inc.

Read LP format model from file /home/piotrek/Kodzenie/SolversComparision/problems/grow15cplex.lp
Reading time = 0.02 seconds
(null): 900 rows, 645 columns, 6220 nonzeros
Optimize a model with 900 rows, 645 columns and 6220 nonzeros
Presolve removed 600 rows and 0 columns
Presolve time: 0.00s
Presolved: 300 rows, 645 columns, 5620 nonzeros

Iteration    Objective       Primal Inf.    Dual Inf.      Time
       0   -1.2975000e+08   6.500000e+07   0.000000e+00      0s
    1261   -1.0687094e+08   0.000000e+00   0.000000e+00      0s

Solved in 1261 iterations and 0.09 seconds
Optimal objective -1.068709413e+08

Wrote result file '/home/piotrek/Kodzenie/SolversComparision/outputs/grow15gurobi.sol'


Gurobi 5.6.3 (linux64) logging started Thu Dec 18 20:15:45 2014


Gurobi Optimizer version 5.6.3 build v5.6.3rc2 (linux64)
Copyright (c) 2013, Gurobi Optimization, Inc.

Read LP format model from file /home/piotrek/Kodzenie/SolversComparision/problems/afirocplex.lp
Reading time = 0.00 seconds
(null): 27 rows, 32 columns, 83 nonzeros
Optimize a model with 27 rows, 32 columns and 83 nonzeros
Presolve removed 21 rows and 23 columns
Presolve time: 0.00s
Presolved: 6 rows, 9 columns, 26 nonzeros

Iteration    Objective       Primal Inf.    Dual Inf.      Time
       0   -5.2220564e+02   4.210907e+02   0.000000e+00      0s
       3   -4.6475314e+02   0.000000e+00   0.000000e+00      0s

Solved in 3 iterations and 0.00 seconds
Optimal objective -4.647531429e+02

Wrote result file '/home/piotrek/Kodzenie/SolversComparision/outputs/afirogurobi.sol'


Gurobi 5.6.3 (linux64) logging started Thu Dec 18 20:15:45 2014


Gurobi Optimizer version 5.6.3 build v5.6.3rc2 (linux64)
Copyright (c) 2013, Gurobi Optimization, Inc.

Read LP format model from file /home/piotrek/Kodzenie/SolversComparision/problems/gangescplex.lp
Reading time = 0.01 seconds
(null): 1713 rows, 1681 columns, 7316 nonzeros
Optimize a model with 1713 rows, 1681 columns and 7316 nonzeros
Presolve removed 1346 rows and 1079 columns
Presolve time: 0.01s
Presolved: 367 rows, 602 columns, 2639 nonzeros

Iteration    Objective       Primal Inf.    Dual Inf.      Time
       0   -2.4838630e+05   3.804770e+05   0.000000e+00      0s
     365   -1.0958574e+05   0.000000e+00   0.000000e+00      0s

Solved in 365 iterations and 0.01 seconds
Optimal objective -1.095857435e+05

Wrote result file '/home/piotrek/Kodzenie/SolversComparision/outputs/gangesgurobi.sol'


Gurobi 5.6.3 (linux64) logging started Thu Dec 18 20:15:45 2014


Gurobi Optimizer version 5.6.3 build v5.6.3rc2 (linux64)
Copyright (c) 2013, Gurobi Optimization, Inc.

Read LP format model from file /home/piotrek/Kodzenie/SolversComparision/problems/agg2cplex.lp
Reading time = 0.01 seconds
(null): 516 rows, 302 columns, 4284 nonzeros
Optimize a model with 516 rows, 302 columns and 4284 nonzeros
Presolve removed 239 rows and 55 columns
Presolve time: 0.00s
Presolved: 277 rows, 247 columns, 2253 nonzeros

Iteration    Objective       Primal Inf.    Dual Inf.      Time
       0   -1.1437020e+08   3.741269e+07   0.000000e+00      0s
     156   -2.0239263e+07   0.000000e+00   0.000000e+00      0s

Solved in 156 iterations and 0.00 seconds
Optimal objective -2.023926325e+07

Wrote result file '/home/piotrek/Kodzenie/SolversComparision/outputs/agg2gurobi.sol'


Gurobi 5.6.3 (linux64) logging started Thu Dec 18 20:15:45 2014


Gurobi Optimizer version 5.6.3 build v5.6.3rc2 (linux64)
Copyright (c) 2013, Gurobi Optimization, Inc.

Read LP format model from file /home/piotrek/Kodzenie/SolversComparision/problems/israelcplex.lp
Reading time = 0.00 seconds
(null): 174 rows, 142 columns, 2269 nonzeros
Optimize a model with 174 rows, 142 columns and 2269 nonzeros
Presolve removed 11 rows and 1 columns
Presolve time: 0.00s
Presolved: 163 rows, 141 columns, 2256 nonzeros

Iteration    Objective       Primal Inf.    Dual Inf.      Time
       0   -4.5133741e+06   1.493211e+05   0.000000e+00      0s
     123   -8.9664482e+05   0.000000e+00   0.000000e+00      0s

Solved in 123 iterations and 0.00 seconds
Optimal objective -8.966448219e+05

Wrote result file '/home/piotrek/Kodzenie/SolversComparision/outputs/israelgurobi.sol'


Gurobi 5.6.3 (linux64) logging started Thu Dec 18 20:15:45 2014


Gurobi Optimizer version 5.6.3 build v5.6.3rc2 (linux64)
Copyright (c) 2013, Gurobi Optimization, Inc.

Read LP format model from file /home/piotrek/Kodzenie/SolversComparision/problems/agg3cplex.lp
Reading time = 0.01 seconds
(null): 516 rows, 302 columns, 4300 nonzeros
Optimize a model with 516 rows, 302 columns and 4300 nonzeros
Presolve removed 239 rows and 58 columns
Presolve time: 0.00s
Presolved: 277 rows, 244 columns, 2274 nonzeros

Iteration    Objective       Primal Inf.    Dual Inf.      Time
       0   -9.4033282e+07   3.907610e+07   0.000000e+00      0s
     153    1.0312059e+07   0.000000e+00   0.000000e+00      0s

Solved in 153 iterations and 0.00 seconds
Optimal objective  1.031205859e+07

Wrote result file '/home/piotrek/Kodzenie/SolversComparision/outputs/agg3gurobi.sol'


Gurobi 5.6.3 (linux64) logging started Thu Dec 18 20:15:45 2014


Gurobi Optimizer version 5.6.3 build v5.6.3rc2 (linux64)
Copyright (c) 2013, Gurobi Optimization, Inc.

Read LP format model from file /home/piotrek/Kodzenie/SolversComparision/problems/grow7cplex.lp
Reading time = 0.00 seconds
(null): 420 rows, 301 columns, 2892 nonzeros
Optimize a model with 420 rows, 301 columns and 2892 nonzeros
Presolve removed 280 rows and 0 columns
Presolve time: 0.00s
Presolved: 140 rows, 301 columns, 2612 nonzeros

Iteration    Objective       Primal Inf.    Dual Inf.      Time
       0   -5.7750000e+07   2.500000e+07   0.000000e+00      0s
     396   -4.7787812e+07   0.000000e+00   0.000000e+00      0s

Solved in 396 iterations and 0.02 seconds
Optimal objective -4.778781181e+07

Wrote result file '/home/piotrek/Kodzenie/SolversComparision/outputs/grow7gurobi.sol'


Gurobi 5.6.3 (linux64) logging started Thu Dec 18 20:15:45 2014


Gurobi Optimizer version 5.6.3 build v5.6.3rc2 (linux64)
Copyright (c) 2013, Gurobi Optimization, Inc.

Read LP format model from file /home/piotrek/Kodzenie/SolversComparision/problems/aggcplex.lp
Reading time = 0.00 seconds
(null): 488 rows, 163 columns, 2410 nonzeros
Optimize a model with 488 rows, 163 columns and 2410 nonzeros
Presolve removed 341 rows and 57 columns
Presolve time: 0.00s
Presolved: 147 rows, 122 columns, 810 nonzeros

Iteration    Objective       Primal Inf.    Dual Inf.      Time
       0   -1.4343157e+08   2.710298e+07   0.000000e+00      0s
      88   -3.5991697e+07   0.000000e+00   0.000000e+00      0s

Solved in 88 iterations and 0.00 seconds
Optimal objective -3.599169694e+07

Wrote result file '/home/piotrek/Kodzenie/SolversComparision/outputs/agggurobi.sol'

